JulietBench/Juliet_Based_Patch_Bench/linux/CWE-190-Integer-Overflow-or-Wraparound/CVE_2017_17854_bb7f0f989ca7de1153bd128a40a71709e339fa03/Resultcheck_func_arg_SnippetNEQ.smt2
; benchmark generated from python API
(set-info :status unknown)
(declare-fun R () (_ BitVec 32))
(declare-fun rdi () (_ BitVec 64))
(assert
 (let (($x142 (= (_ bv4294967295 32) R)))
 (let (($x218 (bvugt rdi (_ bv536870911 64))))
 (let (($x130 (and $x218 $x142)))
 (let (($x156 (= (_ bv0 32) R)))
 (let (($x137 (bvule rdi (_ bv536870911 64))))
 (let ((?x39 ((_ extract 31 0) rdi)))
 (let ((?x40 ((_ zero_extend 32) ?x39)))
 (let ((?x44 (bvlshr ?x40 (_ bv31 64))))
 (let ((?x45 ((_ extract 0 0) ?x44)))
 (let ((?x46 (bvand ?x45 (_ bv1 1))))
 (let (($x173 (= (_ bv0 1) ?x46)))
 (let (($x198 (and (distinct (_ bv0 32) ?x39) true)))
 (let ((?x185 ((_ sign_extend 32) ?x39)))
 (let (($x201 (bvule ?x185 (_ bv2147483647 64))))
 (let (($x157 (and $x201 $x198 $x173 $x137 $x156)))
 (let (($x184 (= (_ bv0 32) ?x39)))
 (let (($x117 (and $x201 $x184 $x173 $x137 $x156)))
 (let (($x182 (or $x117 $x157 $x130)))
 (let (($x169 (not $x182)))
 (let (($x36 (bvugt rdi (_ bv2147483646 64))))
 (let (($x114 (and $x36 $x142)))
 (let (($x15 (bvule rdi (_ bv2147483646 64))))
 (let (($x146 (and $x201 $x198 $x173 $x15 $x156)))
 (let (($x164 (and $x201 $x184 $x173 $x15 $x156)))
 (let (($x135 (or $x164 $x146 $x114)))
 (let (($x121 (not $x135)))
 (let (($x85 (and $x121 $x169)))
 (let (($x199 (and $x135 $x182)))
 (let (($x162 (or $x199 $x85)))
 (not $x162)))))))))))))))))))))))))))))))
(check-sat)
